RT is False
Default write of storage_offers_DA.csv just to have a file (but constraint should be inactive)
Reading model...
...model read.
creating competitive generators file...
...competitive generators recorded.
Loading data...
.. day-ahead data with real-time VRE data read.
Compiling instance...
...instance created.
Creating Offer Mitigation (model will solve as dispatch if TRUE)...
NOTE: storage offers will not be mitigated
...storage offer mitigation file created
Converting model to MPEC...
...converted
NOTE: initial MIP solve with only storage competitive to get feasible solution
Solving...

Welcome to IBM(R) ILOG(R) CPLEX(R) Interactive Optimizer 12.9.0.0
  with Simplex, Mixed Integer & Barrier Optimizers
5725-A06 5725-A29 5724-Y48 5724-Y49 5724-Y54 5724-Y55 5655-Y21
Copyright IBM Corp. 1988, 2019.  All Rights Reserved.

Type 'help' for a list of available commands.
Type 'help' followed by a command name for more
information on commands.

CPLEX> Logfile 'cplex.log' closed.
Logfile 'C:\Users\llavin\Desktop\test826\logs\tmpa82pixbq.cplex.log' open.
CPLEX> New value for parallel optimization mode: -1
CPLEX> New value for emphasis for MIP optimization: 1
CPLEX> New value for mixed integer optimality gap tolerance: 0.01
CPLEX> New value for integrality tolerance: 1e-12
CPLEX> New value for deterministic time limit in ticks: 75000
CPLEX> Problem 'C:\Users\llavin\Desktop\test826\logs\tmpr_a31gsq.pyomo.lp' read.
Read time = 0.22 sec. (13.92 ticks)
CPLEX> Problem name         : C:\Users\llavin\Desktop\test826\logs\tmpr_a31gsq.pyomo.lp
Objective sense      : Maximize
Variables            :   53809  [Nneg: 1,  Box: 22004,  Free: 4464,
                                 Binary: 27340]
Objective nonzeros   :    8980
Linear constraints   :  123253  [Less: 41346,  Greater: 59096,  Equal: 22811]
  Nonzeros           :  293289
  RHS nonzeros       :   67491

Variables            : Min LB: -5000.000        Max UB: 1000000.       
Objective nonzeros   : Min   : 0.4000000        Max   : 722.0000       
Linear constraints   :
  Nonzeros           : Min   : 0.4000000        Max   : 1000000.       
  RHS nonzeros       : Min   : 0.4000000        Max   : 1000000.       
CPLEX> CPXPARAM_Parallel                                -1
CPXPARAM_Emphasis_MIP                            1
CPXPARAM_DetTimeLimit                            75000
CPXPARAM_MIP_Tolerances_MIPGap                   0.01
CPXPARAM_MIP_Tolerances_Integrality              9.9999999999999998e-13
Tried aggregator 4 times.
MIP Presolve eliminated 88682 rows and 18938 columns.
MIP Presolve added 3405 rows and 0 columns.
MIP Presolve modified 24874 coefficients.
Aggregator did 13025 substitutions.
Reduced MIP has 24951 rows, 21290 columns, and 71173 nonzeros.
Reduced MIP has 8409 binaries, 0 generals, 0 SOSs, and 0 indicators.
Presolve time = 0.34 sec. (193.99 ticks)
Probing fixed 405 vars, tightened 3922 bounds.
Probing time = 0.06 sec. (18.80 ticks)
Tried aggregator 2 times.
MIP Presolve eliminated 913 rows and 813 columns.
MIP Presolve modified 3036 coefficients.
Aggregator did 26 substitutions.
Reduced MIP has 24012 rows, 20451 columns, and 68446 nonzeros.
Reduced MIP has 8003 binaries, 0 generals, 0 SOSs, and 0 indicators.
Presolve time = 0.11 sec. (89.51 ticks)
Probing fixed 5 vars, tightened 335 bounds.
Probing time = 0.16 sec. (25.26 ticks)
Clique table members: 44863.
MIP emphasis: integer feasibility.
MIP search method: dynamic search.
Parallel mode: opportunistic, using up to 32 threads.
Root relaxation solution time = 0.41 sec. (607.50 ticks)

        Nodes                                         Cuts/
   Node  Left     Objective  IInf  Best Integer    Best Bound    ItCnt     Gap

      0     0     7849.1308   176                   7849.1308     4951         
      0     0     7849.1308    13                    Cuts: 41     4967         
      0     0     7849.1308    12                     Cuts: 8     4970         
      0     0     7849.1029    12                 Flowcuts: 6     4976         
      0    13     6687.3653     5                   7849.0492     5075         
Elapsed time = 3.77 sec. (1717.29 ticks, tree = 0.02 MB, solutions = 0)
    592   329     6721.5681     7                   7819.4008    19743         
   1059   513  -141954.8870    13                   7819.4008    29159         
   1633   626     4611.1758    15                   7819.4008    35441         
   2185  1078    infeasible                         7819.4008    56502         
   2650  1273    infeasible                         7819.4008    71527         
   3122  1324   -26448.5518    18                   7819.4008    75511         
   3665  1679    infeasible                         7819.4008   104634         
   4120  1670    -9011.2994    16                   7819.4008   104425         
   4635  1750   -92959.8218    70                   7819.4008   109606         
   6601  2291   -83341.4645    45                   7819.4008   157272         
Elapsed time = 18.95 sec. (4823.40 ticks, tree = 87.96 MB, solutions = 0)
   8669  3436   -33361.8060    65                   7819.4008   259467         
  10329  3095 -2056614.5191    71                   7819.4008   238774         
  11879  3444   -97700.0744    56                   7819.4008   267026         
  12798  3377  -264527.6429    25                   7819.4008   259371         
  12935  1888    infeasible                         7819.4008   121203         
  12937  4939    infeasible                         7819.4008   461859         
  14628   711     7819.4008     2                   7819.4008   486690         
  17661  1433     7732.8740     1                   7819.4008   501109         
  21047  3657    infeasible                         7819.4008   528446         
  24550  4604     7782.5284     1                   7819.4008   535618         
Elapsed time = 60.64 sec. (19517.37 ticks, tree = 48.16 MB, solutions = 0)
  27860  6285    infeasible                         7819.4008   551060         
  31764  8212     7570.9106     3                   7819.4008   569351         
  35484 10102     7543.3329     2                   7819.4008   585354         
  39200 11214     7574.7292     1                   7819.4008   595363         
  42443 12548    infeasible                         7819.4008   608719         
  45760 14629    infeasible                         7819.4008   639324         
  49474 15724     7757.8446    86                   7819.4008   647448         
  52719 19064    infeasible                         7819.4008   671789         
  55938 21561     7550.0454    88                   7819.4008   700624         
  59534 23122     5488.7518    33                   7819.4008   716546         
Elapsed time = 126.97 sec. (29056.78 ticks, tree = 195.06 MB, solutions = 0)
  62854 26240  -130487.2630    88                   7819.4008   756086         
  65893 29160     7570.2845    39                   7819.4008   797704         
  69163 29886     1669.1265   134                   7819.4008   811333         
  72216 32862    -3834.1790   111                   7819.4008   858957         
  75318 36159  -215356.0611   126                   7819.4008   915956         
  79208 38870     7570.2845    34                   7819.4008   951095         
  83309 39539     7511.3105    21                   7819.4008   957324         
  86629 43395    infeasible                         7819.4008   997688         
  89210 46016     7550.0454    32                   7819.4008  1033003         
  90789 46829     6443.3097   111                   7819.4008  1048079         
Elapsed time = 147.69 sec. (38595.47 ticks, tree = 393.70 MB, solutions = 0)
  90949 49979    infeasible                         7819.4008  1105251         
* 92406+  513                         7731.8119     7819.4008             1.13%
  93983  1011     7809.0819     1     7731.8119     7819.4008  1149063    1.13%
  96741  1483     7782.5284     1     7731.8119     7819.4008  1152213    1.13%
  99627  2818     7815.0462     2     7731.8119     7819.4008  1160207    1.13%
 102478  4748     7811.9526     1     7731.8119     7819.4008  1172328    1.13%
 104368  6096     7817.1896     1     7731.8119     7819.4008  1180627    1.13%
 105412  7862        cutoff           7731.8119     7819.4008  1197414    1.13%
 108466  7877     7819.2650     2     7731.8119     7819.4008  1197528    1.13%
 111531 10126     7782.5284     2     7731.8119     7819.4008  1216929    1.13%
Elapsed time = 192.83 sec. (49178.73 ticks, tree = 73.87 MB, solutions = 1)
 114483 11490     7782.5284     2     7731.8119     7819.4008  1224704    1.13%
 117132 14332     7819.4008    82     7731.8119     7819.4008  1258560    1.13%
 119695 13372     7818.9159   196     7731.8119     7819.4008  1242017    1.13%
 121791 17152     7819.4008    54     7731.8119     7819.4008  1335764    1.13%
 123008 16778     7758.7072     6     7731.8119     7819.4008  1327811    1.13%
 123941 16938     7811.1399     8     7731.8119     7819.4008  1328975    1.13%
 124726 17851     7819.4008     8     7731.8119     7819.4008  1339401    1.13%
 125463 18891     7819.4008     7     7731.8119     7819.4008  1345657    1.13%
 125990 18380        cutoff           7731.8119     7819.4008  1342237    1.13%
 126520 18697     7819.4008     8     7731.8119     7819.4008  1344431    1.13%
Elapsed time = 227.50 sec. (58727.66 ticks, tree = 187.11 MB, solutions = 1)
 127208 18911     7819.4008     7     7731.8119     7819.4008  1345820    1.13%
 127777 19692     7819.4008     7     7731.8119     7819.4008  1353480    1.13%
*127957 19267      integral     0     7805.9945     7819.4008  1349289    0.17%
 128287 19340     7744.0834     6     7805.9945     7819.4008  1349735    0.17%
 128514 19698     7819.4008     7     7805.9945     7819.4008  1353515    0.17%
 128639 19619     7819.4008     7     7805.9945     7819.4008  1352753    0.17%
 128664 19791     7818.8945     7     7805.9945     7819.4008  1354110    0.17%

Clique cuts applied:  2
Cover cuts applied:  30
Implied bound cuts applied:  3
Flow cuts applied:  45
Mixed integer rounding cuts applied:  5
Gomory fractional cuts applied:  2

Root node processing (before b&c):
  Real time             =    2.39 sec. (1687.99 ticks)
Parallel b&c, 32 threads:
  Real time             =  230.38 sec. (63255.97 ticks)
  Sync time (average)   =    1.71 sec.
  Wait time (average)   =    0.42 sec.
                          ------------
Total (root+branch&cut) =  232.77 sec. (64943.96 ticks)

Solution pool: 2 solutions saved.

MIP - Integer optimal, tolerance (0.01/1e-06):  Objective =  7.8059944893e+03
Current MIP best bound =  7.8194007569e+03 (gap = 13.4063, 0.17%)
Solution time =  232.80 sec.  Iterations = 1359105  Nodes = 128665 (11982)
Deterministic time = 64944.11 ticks  (278.97 ticks/sec)

CPLEX> Incumbent solution written to file 'C:\Users\llavin\Desktop\test826\logs\tmp8rgwn46t.cplex.sol'.
CPLEX> NOTE: no warmstart specified for MIP iteration, default behavior is true
NOTE: resolving with all competitive generators using storage-only solution to warmstart
Solving...

Welcome to IBM(R) ILOG(R) CPLEX(R) Interactive Optimizer 12.9.0.0
  with Simplex, Mixed Integer & Barrier Optimizers
5725-A06 5725-A29 5724-Y48 5724-Y49 5724-Y54 5724-Y55 5655-Y21
Copyright IBM Corp. 1988, 2019.  All Rights Reserved.

Type 'help' for a list of available commands.
Type 'help' followed by a command name for more
information on commands.

CPLEX> Logfile 'cplex.log' closed.
Logfile 'C:\Users\llavin\Desktop\test826\logs\tmpopxjfs96.cplex.log' open.
CPLEX> New value for parallel optimization mode: -1
CPLEX> New value for emphasis for MIP optimization: 1
CPLEX> New value for mixed integer optimality gap tolerance: 0.01
CPLEX> New value for integrality tolerance: 1e-12
CPLEX> New value for deterministic time limit in ticks: 75000
CPLEX> Problem 'C:\Users\llavin\Desktop\test826\logs\tmp3vg55orb.pyomo.lp' read.
Read time = 0.22 sec. (13.94 ticks)
CPLEX> MIP start file 'C:\Users\llavin\Desktop\test826\logs\tmpaxmy9bn4.cplex.mst' read.
CPLEX> Problem name         : C:\Users\llavin\Desktop\test826\logs\tmp3vg55orb.pyomo.lp
Objective sense      : Maximize
Variables            :   54529  [Nneg: 1,  Box: 22724,  Free: 4464,
                                 Binary: 27340]
Objective nonzeros   :    9676
Linear constraints   :  123253  [Less: 41346,  Greater: 59096,  Equal: 22811]
  Nonzeros           :  293289
  RHS nonzeros       :   67491

Variables            : Min LB: -5000.000        Max UB: 1000000.       
Objective nonzeros   : Min   : 0.4000000        Max   : 722.0000       
Linear constraints   :
  Nonzeros           : Min   : 0.4000000        Max   : 1000000.       
  RHS nonzeros       : Min   : 0.4000000        Max   : 1000000.       
CPLEX> CPXPARAM_Parallel                                -1
CPXPARAM_Emphasis_MIP                            1
CPXPARAM_DetTimeLimit                            75000
CPXPARAM_MIP_Tolerances_MIPGap                   0.01
CPXPARAM_MIP_Tolerances_Integrality              9.9999999999999998e-13
Warning:  No solution found from 1 MIP starts.
Retaining values of one MIP start for possible repair.
Tried aggregator 4 times.
MIP Presolve eliminated 88682 rows and 19658 columns.
MIP Presolve added 3405 rows and 0 columns.
MIP Presolve modified 24874 coefficients.
Aggregator did 13025 substitutions.
Reduced MIP has 24951 rows, 21290 columns, and 71173 nonzeros.
Reduced MIP has 8409 binaries, 0 generals, 0 SOSs, and 0 indicators.
Presolve time = 0.31 sec. (194.40 ticks)
Probing fixed 405 vars, tightened 3922 bounds.
Probing time = 0.08 sec. (18.80 ticks)
Tried aggregator 2 times.
MIP Presolve eliminated 913 rows and 813 columns.
MIP Presolve modified 3036 coefficients.
Aggregator did 26 substitutions.
Reduced MIP has 24012 rows, 20451 columns, and 68446 nonzeros.
Reduced MIP has 8003 binaries, 0 generals, 0 SOSs, and 0 indicators.
Presolve time = 0.11 sec. (89.51 ticks)
Probing fixed 5 vars, tightened 335 bounds.
Probing time = 0.16 sec. (25.26 ticks)
Clique table members: 44863.
MIP emphasis: integer feasibility.
MIP search method: dynamic search.
Parallel mode: opportunistic, using up to 32 threads.
Root relaxation solution time = 0.44 sec. (642.20 ticks)

        Nodes                                         Cuts/
   Node  Left     Objective  IInf  Best Integer    Best Bound    ItCnt     Gap

      0     0    73042.4266   256                  73042.4266     5489         
      0     0    72581.0479   132                   Cuts: 155     5653         
      0     0    72118.6313   119                    Cuts: 70     5715         
      0     0    72044.3637   107                    Cuts: 36     5750         
Repair heuristic found nothing.
      0     9    65258.0516    87                     Cuts: 9     5808         
Elapsed time = 3.92 sec. (1796.07 ticks, tree = 0.02 MB, solutions = 0)
    635   570    58865.3211    99                  68357.3897    11043         
   1280   762    59205.8825    33                  68357.3897    12928         
   1948  1572    18044.4336    24                  68357.3897    22524         
   2737  1702    62256.2898    91                  68357.3897    24878         
   3432  2012     7603.3863   103                  68357.3897    32573         
   4070  2410    52935.8098    62                  68357.3897    43178         
   4679  2706    62555.9341    62                  68357.3897    53718         
   5304  3313    55283.3131    64                  68191.5123    70093         
   5935  3915    29351.6604    83                  68191.5123    86457         
*  7642+ 2574                        53249.7211    68191.5123            28.06%
Elapsed time = 18.76 sec. (4690.94 ticks, tree = 14.91 MB, solutions = 1)
*  8014  5666      integral     0    54214.6834    68191.5123   134390   25.78%
*  8057  5528      integral     0    57405.2332    68191.5123   132595   18.79%
   8246  1059        cutoff          57405.2332    68191.5123   159876   18.79%
   9989   145    57567.2854    65    57405.2332    61306.9428   167508    6.80%
  13908  1747        cutoff          57405.2332    61135.6396   192530    6.50%
  18144  2509    57836.8011    51    57405.2332    60410.7777   209369    5.24%
  22028  4288    57734.1016    32    57405.2332    59223.7562   261171    3.17%
  25358  4264        cutoff          57405.2332    58324.3594   259057    1.60%
  26404  4707    57594.3490    14    57405.2332    58324.3594   266985    1.60%
  26554  4543    57484.4652    13    57405.2332    58324.3594   266142    1.60%
  26651  5726    57569.7030    32    57405.2332    58324.3594   280627    1.60%
Elapsed time = 52.17 sec. (14773.59 ticks, tree = 46.64 MB, solutions = 3)

GUB cover cuts applied:  1
Cover cuts applied:  30
Implied bound cuts applied:  12
Flow cuts applied:  104
Mixed integer rounding cuts applied:  18
Zero-half cuts applied:  1
Gomory fractional cuts applied:  12

Root node processing (before b&c):
  Real time             =    2.55 sec. (1759.45 ticks)
Parallel b&c, 32 threads:
  Real time             =   49.91 sec. (13051.92 ticks)
  Sync time (average)   =    5.25 sec.
  Wait time (average)   =    0.22 sec.
                          ------------
Total (root+branch&cut) =   52.45 sec. (14811.37 ticks)

Solution pool: 3 solutions saved.

MIP - Integer optimal, tolerance (0.01/1e-06):  Objective =  5.7405233208e+04
Current MIP best bound =  5.7978956971e+04 (gap = 573.724, 1.00%)
Solution time =   52.47 sec.  Iterations = 281738  Nodes = 26658 (5788)
Deterministic time = 14811.52 ticks  (282.30 ticks/sec)

CPLEX> Incumbent solution written to file 'C:\Users\llavin\Desktop\test826\logs\tmpykqq1or8.cplex.sol'.
CPLEX> Exporting results... 
